Route 1: 0 83 89 15 29 28 59 58 86 57 0
Route 2: 0 94 51 62 40 96 36 13 79 60 91 25 0
Route 3: 0 84 48 78 67 11 46 41 14 43 44 85 70 0
Route 4: 0 75 53 38 23 33 74 81 100 68 0
Route 5: 0 20 6 95 16 8 42 21 93 82 54 0
Route 6: 0 31 65 12 34 26 10 63 69 3 0
Route 7: 0 47 80 73 56 9 4 88 66 97 24 32 0
Route 8: 0 30 37 76 87 92 50 27 0
Route 9: 0 55 64 52 17 90 49 35 18 45 77 1 0
Route 10: 0 5 2 98 61 72 71 22 99 19 39 0
Route 11: 0 7 0
